<number of tasks>
20

<cycle time>
1000

<order strength>
0,289


<task times>
1 162
2 235
3 174
4 185
5 151
6 136
7 476
8 203
9 64
10 29
11 38
12 511
13 173
14 246
15 122
16 118
17 114
18 69
19 94
20 276

<precedence relations>
1,13
2,6
2,8
5,7
6,13
8,9
8,10
8,11
8,12
9,13
10,13
12,14
12,15
13,16
13,17
13,18
13,19
15,20

<end>
